regression_itp/log-2023-02-20-10-22-36/lia_itp_split.smt2.out
unsat
((<= 2 y))
